100
50
   41    15
   42    55
   59    41
   35    26
   41    15
   32    97
   93    32
   19    35
   46    40
   62    33
   86    11
   22    66
   18    99
    5    71
   94    16
   35    48
   57   100
   49    67
   54    36
   33     9
   97    60
    6    23
    3    59
   35    66
   92    32
   34    43
   51    93
   19    55
   53    81
   80    38
  100     1
   35     7
   91    55
   30    20
   47    91
  100    56
   32    95
   26    88
   14    83
   67    42
   75    86
   37    81
   45    13
   58     9
   42    46
   30    50
   16    69
   20    73
    8    50
   93    31
